c Command line: hgen8 155 90
p cnf 155 245
22 60 62 13 0
135 65 114 129 0
19 48 90 16 0
134 17 71 105 0
3 116 99 72 0
37 32 106 108 0
12 81 138 38 0
112 123 150 127 0
5 140 133 58 0
141 40 142 132 0
69 82 27 61 0
51 44 144 101 0
75 102 1 25 0
52 57 36 14 0
29 43 154 119 0
148 103 64 85 0
18 46 73 125 0
10 107 95 118 0
87 20 104 7 0
31 77 78 128 0
115 109 23 100 0
45 92 122 26 0
131 147 34 130 0
76 49 4 86 0
33 117 120 11 0
98 41 35 53 0
42 153 8 83 0
91 63 84 66 0
56 126 79 55 0
113 111 97 47 0
121 143 124 146 0
24 39 93 6 0
-1 -3 0
-1 -4 0
-1 -5 0
-3 -4 0
-3 -5 0
-4 -5 0
-6 -7 0
-6 -8 0
-6 -10 0
-7 -8 0
-7 -10 0
-8 -10 0
-11 -12 0
-11 -13 0
-11 -14 0
-12 -13 0
-12 -14 0
-13 -14 0
-16 -17 0
-16 -18 0
-16 -19 0
-16 -20 0
-17 -18 0
-17 -19 0
-17 -20 0
-18 -19 0
-18 -20 0
-19 -20 0
-22 -23 0
-22 -24 0
-22 -25 0
-23 -24 0
-23 -25 0
-24 -25 0
-26 -27 0
-26 -29 0
-27 -29 0
-31 -32 0
-31 -33 0
-31 -34 0
-31 -35 0
-32 -33 0
-32 -34 0
-32 -35 0
-33 -34 0
-33 -35 0
-34 -35 0
-36 -37 0
-36 -38 0
-36 -39 0
-36 -40 0
-37 -38 0
-37 -39 0
-37 -40 0
-38 -39 0
-38 -40 0
-39 -40 0
-41 -42 0
-41 -43 0
-41 -44 0
-41 -45 0
-42 -43 0
-42 -44 0
-42 -45 0
-43 -44 0
-43 -45 0
-44 -45 0
-46 -47 0
-46 -48 0
-46 -49 0
-47 -48 0
-47 -49 0
-48 -49 0
-51 -52 0
-51 -53 0
-51 -55 0
-52 -53 0
-52 -55 0
-53 -55 0
-56 -57 0
-56 -58 0
-56 -60 0
-57 -58 0
-57 -60 0
-58 -60 0
-61 -62 0
-61 -63 0
-61 -64 0
-61 -65 0
-62 -63 0
-62 -64 0
-62 -65 0
-63 -64 0
-63 -65 0
-64 -65 0
-66 -69 0
-71 -72 0
-71 -73 0
-71 -75 0
-72 -73 0
-72 -75 0
-73 -75 0
-76 -77 0
-76 -78 0
-76 -79 0
-77 -78 0
-77 -79 0
-78 -79 0
-81 -82 0
-81 -83 0
-81 -84 0
-81 -85 0
-82 -83 0
-82 -84 0
-82 -85 0
-83 -84 0
-83 -85 0
-84 -85 0
-86 -87 0
-86 -90 0
-87 -90 0
-91 -92 0
-91 -93 0
-91 -95 0
-92 -93 0
-92 -95 0
-93 -95 0
-97 -98 0
-97 -99 0
-97 -100 0
-98 -99 0
-98 -100 0
-99 -100 0
-101 -102 0
-101 -103 0
-101 -104 0
-101 -105 0
-102 -103 0
-102 -104 0
-102 -105 0
-103 -104 0
-103 -105 0
-104 -105 0
-106 -107 0
-106 -108 0
-106 -109 0
-107 -108 0
-107 -109 0
-108 -109 0
-111 -112 0
-111 -113 0
-111 -114 0
-111 -115 0
-112 -113 0
-112 -114 0
-112 -115 0
-113 -114 0
-113 -115 0
-114 -115 0
-116 -117 0
-116 -118 0
-116 -119 0
-116 -120 0
-117 -118 0
-117 -119 0
-117 -120 0
-118 -119 0
-118 -120 0
-119 -120 0
-121 -122 0
-121 -123 0
-121 -124 0
-121 -125 0
-122 -123 0
-122 -124 0
-122 -125 0
-123 -124 0
-123 -125 0
-124 -125 0
-126 -127 0
-126 -128 0
-126 -129 0
-126 -130 0
-127 -128 0
-127 -129 0
-127 -130 0
-128 -129 0
-128 -130 0
-129 -130 0
-131 -132 0
-131 -133 0
-131 -134 0
-131 -135 0
-132 -133 0
-132 -134 0
-132 -135 0
-133 -134 0
-133 -135 0
-134 -135 0
-138 -140 0
-141 -142 0
-141 -143 0
-141 -144 0
-142 -143 0
-142 -144 0
-143 -144 0
-146 -147 0
-146 -148 0
-146 -150 0
-147 -148 0
-147 -150 0
-148 -150 0
-153 -154 0
